
%FILE DATA:	Soccer Computational Problem for MiniZinc Models	%
%AUTHOR:	Jack Wall	%
%CONTACT:  	116397063@umail.ucc.ie			%
%LAST UPDATE:	03/11/2020, 17:01:54						%
%DESCRIPTION: 	143 games played with 13 games left				%


n=13; %number of teams

%Games to play
games=[|4,3|4,12|13,1|4,5|6,11|9,3|3,6|13,7|8,10|13,6|5,7|8,7|5,4|];

%Initial points
iPoints=[32,24,28,24,29,25,33,33,24,30,35,38,26];

%POSITION CONSTRAINTS
% [|teamID, operator, position|...]
% operators index:
%  1 for =  operator
%  2 for >  operator
%  3 for >= operator
%  4 for <  operator
%  5 for <= operator
positionConstraints=[|12,1,1|8,1,2|11,5,3|7,5,4|];